40 40
4 98 1
4 30 1
66 86 1
46 87 1
32 88 1
46 79 1
44 82 1
15 52 1
81 78 1
98 82 1
54 21 1
72 82 1
8 89 1
49 96 1
19 93 1
73 1 1
100 77 1
22 9 1
95 20 1
7 64 1
81 31 1
72 44 1
70 57 1
95 59 1
5 74 1
88 55 1
66 93 1
94 9 1
62 60 1
92 33 1
39 51 1
92 70 1
74 78 1
40 98 1
78 86 1
12 30 1
96 52 1
20 8 1
5 87 1
8 11 1
300 300 
300 300 
300 300 
300 300 
300 300 
300 300 
300 300 
300 300 
300 300 
300 300 
300 300 
300 300 
300 300 
300 300 
300 300 
300 300 
300 300 
300 300 
300 300 
300 300 
300 300 
300 300 
300 300 
300 300 
300 300 
300 300 
300 300 
300 300 
300 300 
300 300 
300 300 
300 300 
300 300 
300 300 
300 300 
300 300 
300 300 
300 300 
300 300 
300 300 
